p cnf 60 114
-1 -2 -3 -6 0
-2 -3 -4 -12 0
-2 -4 -6 -12 0
-3 -4 -6 -12 0
-2 -3 -6 0
-5 -6 -10 -15 0
-4 -5 -10 -12 -15 0
-2 -3 -5 -10 -15 0
-4 -10 -12 -15 0
-2 -3 -10 -15 0
-6 -10 -15 0
1 16 0
-1 -16 0
2 17 0
-2 -17 0
3 18 0
-3 -18 0
4 19 0
-4 -19 0
5 20 0
-5 -20 0
6 21 0
-6 -21 0
7 22 0
-7 -22 0
8 23 0
-8 -23 0
9 24 0
-9 -24 0
10 25 0
-10 -25 0
11 26 0
-11 -26 0
12 27 0
-12 -27 0
13 28 0
-13 -28 0
14 29 0
-14 -29 0
15 30 0
-15 -30 0
-16 31 0
-32 0
-17 33 0
-31 33 0
-32 34 0
-17 -31 34 0
-17 -32 0
-18 35 0
-33 35 0
-34 36 0
-18 -33 36 0
-18 -34 0
-19 37 0
-35 37 0
-36 38 0
-19 -35 38 0
-19 -36 0
-20 39 0
-37 39 0
-38 40 0
-20 -37 40 0
-20 -38 0
-21 41 0
-39 41 0
-40 42 0
-21 -39 42 0
-21 -40 0
-22 43 0
-41 43 0
-42 44 0
-22 -41 44 0
-22 -42 0
-23 45 0
-43 45 0
-44 46 0
-23 -43 46 0
-23 -44 0
-24 47 0
-45 47 0
-46 48 0
-24 -45 48 0
-24 -46 0
-25 49 0
-47 49 0
-48 50 0
-25 -47 50 0
-25 -48 0
-26 51 0
-49 51 0
-50 52 0
-26 -49 52 0
-26 -50 0
-27 53 0
-51 53 0
-52 54 0
-27 -51 54 0
-27 -52 0
-28 55 0
-53 55 0
-54 56 0
-28 -53 56 0
-28 -54 0
-29 57 0
-55 57 0
-56 58 0
-29 -55 58 0
-29 -56 0
-30 59 0
-57 59 0
-58 60 0
-30 -57 60 0
-30 -58 0
-60 0
